; benchmark generated from python API
(set-info :status unknown)
(declare-fun S_4 () Real)
(declare-fun L_0 () Real)
(declare-fun A_4 () Real)
(declare-fun Q_4 () Real)
(declare-fun S_3 () Real)
(declare-fun A_3 () Real)
(declare-fun S_2 () Real)
(declare-fun A_2 () Real)
(declare-fun S_1 () Real)
(declare-fun A_1 () Real)
(declare-fun S_0 () Real)
(declare-fun A_0 () Real)
(assert
 (let (($x712 (>= Q_4 0.0)))
 (let (($x34 (>= L_0 0.0)))
 (let ((?x388 (* (- 1.0) S_4)))
 (let ((?x534 (* (- 1.0) L_0)))
 (let ((?x377 (* (- 1.0) A_2)))
 (let ((?x365 (* (- 1.0) Q_4)))
 (let (($x106913 (<= (+ ?x365 A_4 ?x377 A_1 ?x534 ?x388) (- 5.0))))
 (let ((?x373 (* (- 1.0) A_3)))
 (let ((?x1637 (* 2.0 A_4)))
 (let ((?x1636 (* (- 2.0) Q_4)))
 (let (($x106845 (<= (+ ?x1636 ?x1637 ?x373 ?x377 ?x388 S_0) (- 5.0))))
 (let ((?x1701 (* (- (/ 1.0 2.0)) S_4)))
 (let ((?x8122 (* (- (/ 1.0 2.0)) L_0)))
 (let ((?x2445 (* (/ 1.0 2.0) A_1)))
 (let (($x105323 (<= (+ ?x365 A_4 ?x373 ?x2445 ?x8122 ?x1701) (- 5.0))))
 (let ((?x6913 (* (/ 3.0 2.0) S_4)))
 (let ((?x8263 (* (/ 3.0 2.0) L_0)))
 (let ((?x978 (* (- (/ 1.0 2.0)) A_1)))
 (let ((?x369 (* (- 1.0) A_4)))
 (let (($x104203 (<= 0.0 (+ Q_4 ?x369 ?x978 ?x8263 ?x6913))))
 (let (($x98737 (<= 0.0 (+ Q_4 ?x369 A_3 ?x377 S_4 L_0))))
 (let (($x43647 (<= (+ (* (- 3.0) Q_4) (* 3.0 A_4) (* (- 3.0) A_3) ?x388 S_0) 0.0)))
 (let (($x999 (>= Q_4 5.0)))
 (let ((?x894 (+ A_3 ?x534 ?x388)))
 (let (($x895 (<= ?x894 0.0)))
 (let (($x257821 (or $x895 $x999 $x43647 $x98737 (not (<= (- 5.0) (+ ?x365 A_4 ?x373 (* (- 1.0) A_1) S_0 L_0))) $x104203 $x105323 $x106845 $x106913)))
 (let (($x103494 (<= 0.0 (+ ?x373 A_2 (* (/ 1.0 2.0) S_4) (* (- (/ 1.0 2.0)) S_1)))))
 (let (($x102761 (<= (+ ?x365 A_4 ?x373 A_2 ?x534 ?x388) (- 5.0))))
 (let ((?x1460 (* (/ 1.0 2.0) S_1)))
 (let ((?x1725 (* (/ 1.0 2.0) A_2)))
 (let ((?x2425 (* (- (/ 1.0 2.0)) A_3)))
 (let ((?x1468 (* (/ 1.0 2.0) A_4)))
 (let ((?x1586 (* (- (/ 1.0 2.0)) Q_4)))
 (let (($x93377 (<= 0.0 (+ ?x373 A_1 S_4 (* (- 1.0) S_1)))))
 (let ((?x10489 (* (/ 1.0 3.0) S_1)))
 (let ((?x10467 (* (- (/ 2.0 3.0)) L_0)))
 (let ((?x10011 (* (/ 2.0 3.0) A_4)))
 (let ((?x10491 (* (- (/ 2.0 3.0)) Q_4)))
 (let (($x9829 (<= (+ ?x10491 ?x10011 ?x10467 ?x388 ?x10489) 0.0)))
 (let (($x2557 (<= (+ ?x365 A_4 A_2 (* (- 2.0) L_0) (* (- 2.0) S_4)) 0.0)))
 (let (($x133722 (or $x999 $x2557 $x9829 $x93377 (<= (+ ?x1586 ?x1468 ?x2425 ?x1725 ?x978 ?x1701 ?x1460) (- 5.0)) $x102761 $x103494 (<= (+ ?x365 A_4 ?x373 ?x1701 ?x1460) (- 5.0)))))
 (let ((?x8430 (* (/ 1.0 2.0) S_0)))
 (let ((?x399 (* (- 1.0) S_3)))
 (let ((?x2443 (* (/ 1.0 2.0) S_4)))
 (let ((?x697 (* (/ 1.0 2.0) A_3)))
 (let ((?x1357 (* (- (/ 1.0 2.0)) A_4)))
 (let ((?x2156 (* (/ 1.0 2.0) Q_4)))
 (let (($x52715 (<= (+ ?x2156 ?x1357 ?x697 ?x1725 ?x978 ?x2443 ?x399 ?x8430) 0.0)))
 (let (($x6156 (<= (+ S_4 (* (- 3.0) S_3) (* 2.0 S_1)) 0.0)))
 (let (($x901 (<= (+ A_2 ?x534 ?x399) 0.0)))
 (let (($x111093 (<= (+ ?x1586 ?x1468 ?x1725 (* (- 1.0) A_1) ?x399 S_0) (- 5.0))))
 (let (($x110774 (<= (+ ?x1586 ?x1468 ?x2425 ?x1725 ?x978 (* (- (/ 1.0 2.0)) S_3) ?x8430) (- 5.0))))
 (let (($x109859 (<= (+ ?x365 A_4 ?x377 ?x399 S_0) (- 5.0))))
 (let ((?x1102 (* (- 2.0) S_3)))
 (let ((?x1682 (* (- 2.0) L_0)))
 (let ((?x1625 (* 2.0 A_1)))
 (let (($x107403 (<= (+ ?x365 A_4 ?x377 ?x1625 ?x1682 ?x1102) (- 5.0))))
 (let ((?x11062 (+ ?x365 A_4 ?x373 A_1 ?x534 ?x399)))
 (let (($x105332 (<= ?x11062 (- 5.0))))
 (let (($x105244 (<= (+ ?x365 A_4 ?x373 (* (- (/ 1.0 2.0)) S_3) ?x8430) (- 5.0))))
 (let (($x21208 (<= (+ A_4 (* (- 1.0) A_1) (* (- (/ 3.0 2.0)) S_3) (* (/ 3.0 2.0) S_0)) 0.0)))
 (let (($x11181 (<= (+ ?x1586 ?x1468 ?x8122 ?x399 ?x8430) 0.0)))
 (let (($x9972 (<= (+ ?x365 A_4 ?x1625 (* (- 3.0) L_0) (* (- 3.0) S_3)) 0.0)))
 (let (($x3386 (<= (+ L_0 (* (- 1.0) A_0) ?x399 (* 2.0 S_1)) 0.0)))
 (let (($x102183 (<= 0.0 (+ ?x373 A_2 S_4 (* (- 1.0) S_2)))))
 (let ((?x1403 (* 3.0 S_2)))
 (let ((?x1174 (* (- 2.0) S_4)))
 (let ((?x912 (* (- 1.0) A_0)))
 (let (($x3520 (<= (+ ?x1586 ?x1468 (* (- (/ 1.0 2.0)) A_2) ?x388 S_2) 0.0)))
 (let (($x258793 (or $x3520 (<= (+ L_0 ?x377 A_1 ?x912 ?x365 ?x388 (* 2.0 S_2)) 0.0) (<= (+ ?x365 A_4 ?x373 ?x377 A_1 ?x912 ?x1174 ?x1403 L_0) 0.0) $x102183)))
 (let (($x105702 (<= (+ A_3 ?x377 ?x388 S_2) (- 5.0))))
 (let (($x105687 (<= (+ (* 2.0 A_3) (* (- 2.0) A_1) ?x1174 S_2 S_0) (- 10.0))))
 (let (($x1792 (<= (+ ?x1174 ?x1403 (* (- 1.0) S_1)) 0.0)))
 (let ((?x7297 (* (/ 2.0 3.0) S_0)))
 (let ((?x8001 (* (- (/ 2.0 3.0)) S_4)))
 (let ((?x36068 (+ ?x365 A_4 ?x377 ?x8001 ?x7297)))
 (let (($x110419 (<= 0.0 ?x36068)))
 (let (($x141079 (or $x895 $x999 (<= 0.0 (+ Q_4 ?x369 A_2 (* (- 1.0) A_1) S_4 L_0)) (not (<= 0.0 (+ ?x365 A_4 (* (- 1.0) A_1) ?x388 S_0))) $x106845 $x110419)))
 (let (($x109504 (<= ?x36068 (- 5.0))))
 (let ((?x7817 (* (/ 1.0 3.0) S_0)))
 (let ((?x6891 (* (- (/ 1.0 3.0)) S_4)))
 (let ((?x36193 (+ ?x10491 ?x10011 (* (- (/ 2.0 3.0)) A_3) (* (/ 1.0 3.0) A_2) (* (- (/ 1.0 3.0)) A_1) ?x6891 ?x7817)))
 (let (($x104636 (<= (+ ?x365 A_4 ?x373 ?x6891 ?x7817) (- 5.0))))
 (let ((?x381 (* (- 1.0) A_1)))
 (let ((?x6729 (+ ?x365 A_4 ?x381 ?x388 S_0)))
 (let (($x103193 (<= ?x6729 (- 5.0))))
 (let ((?x11176 (* (/ 1.0 4.0) S_0)))
 (let ((?x11170 (* (- (/ 3.0 4.0)) L_0)))
 (let ((?x11182 (* (/ 3.0 4.0) A_4)))
 (let ((?x11162 (* (- (/ 3.0 4.0)) Q_4)))
 (let (($x11175 (<= (+ ?x11162 ?x11182 ?x11170 ?x388 ?x11176) 0.0)))
 (let (($x261289 (or $x895 $x999 $x2557 $x11175 $x102761 $x103193 $x104203 $x104636 $x105323 $x106913 (<= ?x36193 (- 5.0)) $x109504)))
 (let (($x105792 (<= (+ A_3 ?x377 ?x912 ?x388 (* 2.0 S_1) L_0) (- 5.0))))
 (let (($x102759 (<= (+ A_3 ?x381 ?x388 S_1) (- 5.0))))
 (let (($x3149 (<= (+ A_2 ?x912 ?x388 S_1) 0.0)))
 (let (($x1649 (<= (+ (* (- 2.0) A_0) ?x388 (* 3.0 S_1) (* 2.0 L_0)) 0.0)))
 (let (($x258203 (or $x895 $x1649 $x3149 $x102759 (<= (+ A_2 ?x381 ?x912 ?x388 (* 2.0 S_1) L_0) (- 5.0)) $x105792)))
 (let ((?x410 (* (- 1.0) S_2)))
 (let ((?x3033 (+ ?x365 A_4 ?x373 ?x410 S_0)))
 (let (($x106227 (<= ?x3033 (- 5.0))))
 (let (($x907 (<= (+ A_1 ?x534 ?x410) 0.0)))
 (let (($x119006 (or $x907 $x999 (<= 0.0 (+ L_0 ?x369 (* 4.0 S_2) (* (- 3.0) S_0) Q_4)) $x106227 (<= (+ ?x365 A_4 ?x381 (* (- 3.0) S_2) (* 3.0 S_0)) (- 5.0)) (<= (+ ?x365 A_4 ?x377 (* (- 2.0) S_2) (* 2.0 S_0)) (- 5.0)))))
 (let (($x1968 (<= (+ (* (- 3.0) S_4) (* 4.0 S_2) (* (- 1.0) S_0)) 0.0)))
 (let (($x102925 (<= (+ A_2 ?x381 ?x399 S_1) (- 5.0))))
 (let ((?x10494 (* (/ 2.0 3.0) S_1)))
 (let ((?x10470 (* (- (/ 1.0 3.0)) L_0)))
 (let ((?x10468 (* (/ 1.0 3.0) A_4)))
 (let ((?x10492 (* (- (/ 1.0 3.0)) Q_4)))
 (let (($x118838 (or $x901 $x999 (<= (+ ?x10492 ?x10468 ?x10470 ?x399 ?x10494) 0.0) $x102925 (<= (+ ?x365 A_4 ?x381 (* (- 3.0) S_3) (* 3.0 S_1)) (- 5.0)) (<= (+ ?x365 A_4 ?x373 ?x399 S_1) (- 5.0)) (<= (+ ?x365 A_4 ?x377 ?x1102 (* 2.0 S_1)) (- 5.0)))))
 (let (($x104646 (<= (+ ?x365 A_4 ?x381 (* (- 3.0) S_4) ?x1403) (- 5.0))))
 (let (($x94915 (<= (+ ?x365 A_4 ?x373 ?x388 S_2) (- 5.0))))
 (let (($x13693 (<= (+ ?x1586 ?x1468 ?x388 (* (/ 1.0 2.0) S_2) ?x8122) 0.0)))
 (let (($x103204 (<= (+ ?x365 A_4 ?x373 A_2 ?x381 ?x399 S_0) (- 5.0))))
 (let ((?x955 (* (- 1.0) S_0)))
 (let ((?x1379 (* 3.0 S_1)))
 (let ((?x1695 (* 2.0 Q_4)))
 (let ((?x1607 (* (- 2.0) A_2)))
 (let ((?x1629 (* 2.0 A_3)))
 (let (($x3142 (<= (+ (* 2.0 A_2) ?x1682 ?x1174 S_1 ?x955) 0.0)))
 (let (($x2251 (<= (+ (* 2.0 A_2) (* (- 2.0) A_1) ?x1695 ?x1174 ?x1379 ?x955) 0.0)))
 (let (($x1359 (<= (+ Q_4 A_3 ?x381 ?x388 S_1) 0.0)))
 (let (($x1352 (<= (+ ?x388 (* 2.0 S_1) ?x955) 0.0)))
 (let (($x118720 (or $x895 $x1352 $x1359 $x2251 $x3142 (<= (+ ?x1629 ?x1607 ?x1695 ?x1174 ?x1379 ?x955) 0.0))))
 (let (($x7969 (<= (+ L_0 ?x912 ?x1701 (* (/ 3.0 2.0) S_1)) 0.0)))
 (let (($x141144 (or $x895 $x7969 $x102759 $x105792 (not (<= 0.0 (+ ?x373 A_2 ?x912 S_1 L_0))))))
 (let (($x100853 (<= (+ A_2 ?x534 ?x388) (- 5.0))))
 (let (($x275 (<= (+ ?x388 S_1) (- 10.0))))
 (let (($x105799 (<= (+ A_3 ?x381 ?x388 S_0) (- 10.0))))
 (let (($x105348 (<= (+ ?x2445 ?x8122 ?x1701) (- 5.0))))
 (let (($x103417 (<= (+ ?x6891 ?x7817) (- 5.0))))
 (let (($x42160 (<= (+ ?x2425 A_2 ?x978 ?x2156 ?x2443 ?x399 ?x8430) 0.0)))
 (let (($x4744 (<= (+ ?x373 A_1 ?x365 S_4 ?x399) 0.0)))
 (let (($x256729 (or $x901 $x4744 $x42160 (<= 0.0 (+ ?x369 ?x697 ?x2445 ?x2156 ?x2443 (* (- (/ 1.0 2.0)) S_0))))))
 (let (($x5962 (<= (+ ?x1636 ?x1637 (* (- 2.0) A_3) ?x399 S_0) 0.0)))
 (let (($x4694 (<= (+ Q_4 ?x369 A_2 S_4 ?x399) 0.0)))
 (let (($x2450 (<= (+ Q_4 ?x369 A_3 A_2 ?x381 ?x388 (* 2.0 S_1) ?x955) 0.0)))
 (let (($x753 (<= Q_4 0.0)))
 (let (($x6671 (<= (+ A_3 ?x377 Q_4 ?x388 S_2) 0.0)))
 (let (($x6436 (<= (+ ?x978 (* (/ 1.0 2.0) L_0) ?x1701 S_2) 0.0)))
 (let (($x5831 (<= (+ ?x1695 ?x369 ?x1629 ?x381 ?x388 S_2) 0.0)))
 (let ((?x11190 (* (/ 3.0 4.0) S_0)))
 (let ((?x12668 (* (/ 1.0 4.0) S_4)))
 (let ((?x47184 (* (/ 1.0 4.0) A_1)))
 (let ((?x52717 (* (- (/ 1.0 4.0)) A_2)))
 (let ((?x52733 (* (- (/ 1.0 4.0)) A_3)))
 (let ((?x11174 (* (/ 1.0 4.0) A_4)))
 (let ((?x11173 (* (- (/ 1.0 4.0)) Q_4)))
 (let (($x38443 (<= (+ ?x377 A_1 ?x365 S_4 (* (- 3.0) S_2) (* 2.0 S_0)) 0.0)))
 (let ((?x1386 (* 2.0 S_0)))
 (let ((?x1742 (* (- 2.0) S_2)))
 (let ((?x21259 (+ ?x365 A_4 ?x377 ?x1742 ?x1386)))
 (let (($x21013 (<= ?x21259 0.0)))
 (let (($x250065 (or (not (<= (+ L_0 ?x377 S_4 ?x1742 ?x1386) 0.0)) $x21013 $x38443 (<= (+ ?x11173 ?x11174 ?x52733 ?x52717 ?x47184 ?x12668 ?x410 ?x11190) 0.0))))
 (let (($x3493 (<= (+ Q_4 ?x369 A_3 ?x912 S_1 L_0) 0.0)))
 (let (($x2628 (<= (+ ?x2156 ?x1357 ?x1725 ?x912 S_1 L_0) 0.0)))
 (let ((?x5381 (* (/ 1.0 3.0) S_4)))
 (let ((?x10483 (* (/ 2.0 3.0) Q_4)))
 (let (($x44078 (<= (+ (* (/ 2.0 3.0) A_2) (* (- (/ 2.0 3.0)) A_1) ?x10483 ?x5381 ?x399 ?x7297) 0.0)))
 (let (($x20863 (<= (+ ?x1625 ?x1682 S_4 (* (- 3.0) S_3)) 0.0)))
 (let (($x12478 (<= (+ ?x2443 ?x399 ?x8430) 0.0)))
 (let (($x250677 (or $x895 $x1359 (<= (+ L_0 A_3 ?x377 ?x912 Q_4 ?x388 (* 2.0 S_1)) 0.0) $x7969 (not $x105792))))
 (let (($x3015 (<= ?x3033 0.0)))
 (let (($x125941 (or $x907 $x3015 (<= (+ ?x373 A_2 ?x365 S_4 (* (- 3.0) S_2) ?x1386) 0.0))))
 (let (($x251656 (or $x895 $x1359 $x1649 (<= (+ L_0 A_2 ?x381 ?x912 Q_4 ?x388 (* 2.0 S_1)) 0.0) $x3149 $x105792)))
 (let (($x103182 (<= (+ ?x388 S_0) (- 15.0))))
 (let (($x252443 (or $x895 $x907 $x103182 (not (<= (- 5.0) (+ ?x373 A_2))) (<= (+ A_3 ?x381 Q_4 ?x388 S_0) (- 5.0)))))
 (let (($x11065 (<= ?x11062 0.0)))
 (let (($x104494 (or (<= (+ ?x534 A_2 ?x399 ?x365) 0.0) $x5962 $x11065 (<= (+ ?x373 A_2 ?x365 S_4 (* (- (/ 3.0 2.0)) S_3) ?x8430) 0.0) (<= (+ ?x534 ?x373 A_2 A_1 ?x365 S_4 ?x1102) 0.0) $x42160)))
 (let (($x2196 (<= (+ A_2 ?x381 Q_4 ?x399 S_1) 0.0)))
 (let ((?x1347 (+ ?x365 A_4 ?x373 ?x399 S_1)))
 (let (($x718 (<= ?x1347 0.0)))
 (let ((?x1370 (* 2.0 S_1)))
 (let ((?x1179 (* (- 3.0) S_3)))
 (let ((?x2113 (* (- 2.0) A_1)))
 (let ((?x1713 (* 2.0 A_2)))
 (let ((?x1694 (* (- 2.0) A_4)))
 (let (($x116553 (or $x753 $x901 $x6156 (<= (+ ?x1695 ?x1694 ?x1629 ?x1713 ?x2113 S_4 ?x1179 ?x1370) 0.0))))
 (let (($x120959 (or $x999 $x102761 $x103193 (<= ?x894 5.0) $x104636 $x105323 $x106913 (<= (+ ?x2156 ?x1357 (* (/ 3.0 2.0) A_2) ?x381) (- 5.0)) $x109504)))
 (let (($x4923 (<= (+ ?x365 A_4 ?x373 ?x377 A_1 ?x1174 ?x1403 (* (- 1.0) S_1)) 0.0)))
 (let (($x3814 (<= (+ ?x377 A_1 ?x365 ?x388 (* 2.0 S_2) (* (- 1.0) S_1)) 0.0)))
 (let (($x3922 (<= (+ ?x534 A_1 ?x410 ?x365) 0.0)))
 (let (($x4696 (<= (+ ?x1102 ?x1379 ?x955) 0.0)))
 (let (($x2605 (<= (+ ?x1695 ?x1694 ?x1713 ?x1370 (* (- 2.0) S_0)) 0.0)))
 (let (($x1302 (<= (+ ?x1695 ?x1694 ?x1629 S_1 ?x955) 0.0)))
 (let ((?x1960 (* 4.0 S_2)))
 (let ((?x1182 (* (- 3.0) S_4)))
 (let (($x4917 (<= (+ ?x365 A_4 ?x373 ?x377 A_1 ?x1182 ?x1960 ?x955) 0.0)))
 (let (($x3949 (<= (+ ?x377 A_1 ?x365 ?x1174 ?x1403 ?x955) 0.0)))
 (let (($x125518 (or $x901 $x999 $x11181 (<= 0.0 (+ ?x11173 ?x11174 (* (/ 3.0 4.0) L_0) ?x381 ?x11190)) (<= (+ ?x365 A_4 ?x381 (* (- (/ 3.0 2.0)) S_3) (* (/ 3.0 2.0) S_0)) (- 5.0)) $x105244 $x109859 $x110774 $x111093)))
 (let (($x102209 (<= (+ ?x365 A_4 ?x377 ?x388 S_1) (- 5.0))))
 (let (($x254056 (or $x895 $x999 $x2557 $x9829 (not $x93377) (<= (+ ?x1586 ?x1468 ?x1725 ?x381 ?x388 S_1) (- 5.0)) $x102209 $x102759 (<= (+ ?x365 A_4 ?x381 (* (- (/ 3.0 2.0)) S_4) (* (/ 3.0 2.0) S_1)) (- 5.0)))))
 (let (($x108878 (<= (+ ?x365 A_4 ?x377 ?x1174 (* 2.0 S_2)) (- 5.0))))
 (let (($x114309 (or $x753 $x895 $x999 $x13693 $x94915 (<= (+ Q_4 ?x369 ?x1629 ?x381 ?x388 S_2) (- 5.0)) $x104646 $x105702 $x108878)))
 (let ((?x943 (+ Q_4 ?x369 A_3)))
 (let (($x102313 (<= ?x943 (- 5.0))))
 (let (($x112646 (or $x753 $x102313 (<= (+ ?x2156 ?x1357 (* (/ 1.0 2.0) L_0) (* (/ 1.0 2.0) S_2)) (- 5.0)))))
 (let (($x103745 (<= (+ (* (/ 1.0 4.0) Q_4) (* (- (/ 1.0 4.0)) A_4) (* (/ 1.0 4.0) L_0) ?x11176) (- 5.0))))
 (let (($x96124 (<= (+ Q_4 ?x369 A_2) (- 10.0))))
 (let (($x29159 (<= (+ ?x1629 ?x2113 ?x1695 ?x1174 S_2 S_0) 0.0)))
 (let (($x1985 (<= (+ ?x912 ?x1174 ?x1403 L_0) 0.0)))
 (let (($x2467 (<= (+ ?x2156 ?x1357 ?x697 ?x1725 ?x978 ?x912 ?x1701 (* (/ 3.0 2.0) S_1) L_0) 0.0)))
 (let (($x128948 (or $x901 (<= (+ L_0 ?x373 S_4 (* (- (/ 1.0 2.0)) S_3) ?x8430) 0.0) (<= (+ ?x373 A_1 S_4 ?x399) 0.0) $x42160)))
 (let (($x260483 (or $x907 $x3015 (<= (+ ?x2425 ?x1725 ?x1586 (* (/ 1.0 2.0) S_3) ?x410 ?x8430) 0.0))))
 (let ((?x6337 (* 4.0 L_0)))
 (let (($x11729 (<= (+ (* 4.0 Q_4) (* (- 4.0) A_4) ?x6337 (* 5.0 S_3) ?x955) 0.0)))
 (let (($x110516 (or $x753 $x901 $x3386 (<= (+ Q_4 ?x369 A_3 A_2 ?x381 ?x912 ?x399 ?x1370 L_0) 0.0))))
 (let (($x105285 (<= (+ (* (- (/ 1.0 2.0)) S_3) ?x8430) (- 5.0))))
 (let (($x262313 (or $x895 $x1352 $x2251 $x3142 $x102759 (<= (+ ?x1629 ?x1607 ?x1174 ?x1379 ?x955) (- 10.0)))))
 (let (($x108805 (or $x753 (<= (+ ?x1695 ?x1694 (* 2.0 L_0) (* 3.0 S_3) ?x410) 0.0))))
 (let (($x13745 (<= (+ (* (/ 3.0 2.0) Q_4) (* (- (/ 3.0 2.0)) A_4) ?x8263 (* (/ 5.0 2.0) S_2) ?x955) 0.0)))
 (let (($x1847 (<= (+ (* 3.0 Q_4) (* (- 3.0) A_4) (* 3.0 A_3) S_2 ?x955) 0.0)))
 (let (($x1843 (<= (+ ?x1695 ?x1694 ?x1629 S_2 (* (- 1.0) S_1)) 0.0)))
 (let (($x108592 (or $x895 $x1352 $x3142 $x102759 (<= (+ A_2 ?x381 ?x388 (* (/ 3.0 2.0) S_1) (* (- (/ 1.0 2.0)) S_0)) (- 5.0)) (<= (+ ?x1629 ?x1607 ?x388 S_1) (- 10.0)))))
 (let (($x10507 (<= (+ ?x10483 (* (- (/ 2.0 3.0)) A_4) (* (/ 2.0 3.0) L_0) (* (/ 5.0 3.0) S_1) ?x955) 0.0)))
 (let (($x145799 (or $x718 $x901 (<= (+ ?x373 A_2 ?x365 S_4 ?x1102 S_1) 0.0) $x102925)))
 (let ((?x8968 (* (/ 1.0 3.0) S_3)))
 (let ((?x37504 (* (/ 1.0 3.0) A_1)))
 (let ((?x36758 (* (- (/ 1.0 3.0)) A_2)))
 (let ((?x18145 (* (- (/ 1.0 3.0)) A_3)))
 (let (($x29129 (<= (+ (* (- (/ 1.0 2.0)) A_2) ?x2445 ?x1586 (* (/ 1.0 2.0) S_3) ?x410 ?x8430) 0.0)))
 (let (($x146486 (or $x907 $x21013 $x29129 (<= (+ ?x10492 ?x10468 ?x18145 ?x36758 ?x37504 ?x8968 ?x410 ?x7297) 0.0))))
 (let (($x11079 (<= (+ Q_4 ?x369 A_3 ?x381 L_0 S_2) 0.0)))
 (let (($x126011 (or $x753 (<= (+ Q_4 ?x369 ?x2113 (* 3.0 L_0) ?x1403) 0.0) $x11079)))
 (let (($x1856 (<= (+ ?x1695 ?x1694 ?x1629 ?x912 L_0 S_2) 0.0)))
 (let (($x261684 (or $x753 $x1856 (<= (+ Q_4 ?x369 (* 2.0 L_0) ?x912 (* 2.0 S_2)) 0.0))))
 (let (($x106122 (or $x753 $x901 $x4696 (<= (+ ?x1695 ?x1694 ?x1629 ?x1713 ?x2113 ?x1102 ?x1379 ?x955) 0.0))))
 (let (($x103774 (<= (+ (* (/ 1.0 3.0) Q_4) (* (- (/ 1.0 3.0)) A_4) (* (/ 1.0 3.0) L_0) ?x10489) (- 5.0))))
 (let (($x11747 (<= (+ (* 3.0 Q_4) (* (- 3.0) A_4) ?x6337 ?x912 (* 4.0 S_3)) 0.0)))
 (let ((?x10474 (* (- (/ 1.0 3.0)) A_4)))
 (let ((?x10479 (* (/ 1.0 3.0) Q_4)))
 (let (($x104565 (or $x753 $x2628 $x3493 (<= (+ ?x10479 ?x10474 (* (/ 4.0 3.0) L_0) ?x912 (* (/ 4.0 3.0) S_1)) 0.0))))
 (let (($x104214 (or $x753 $x1843 (<= (+ Q_4 ?x369 L_0 (* 2.0 S_2) (* (- 1.0) S_1)) 0.0))))
 (let ((?x421 (* (- 1.0) S_1)))
 (let ((?x1183 (* 4.0 S_3)))
 (let ((?x1413 (* 3.0 L_0)))
 (let ((?x1325 (* (- 3.0) A_4)))
 (let ((?x1382 (* 3.0 Q_4)))
 (let (($x103603 (or $x753 (<= (+ Q_4 ?x369 ?x377 (* 2.0 L_0) (* 2.0 S_3)) 0.0))))
 (let (($x96 (>= S_1 S_0)))
 (let (($x99 (>= S_2 S_1)))
 (let (($x102 (>= S_3 S_2)))
 (let (($x105 (>= S_4 S_3)))
 (let (($x107 (>= A_1 A_0)))
 (let (($x108 (>= A_2 A_1)))
 (let (($x109 (>= A_3 A_2)))
 (let (($x110 (>= A_4 A_3)))
 (and $x110 $x109 $x108 $x107 $x105 $x102 $x99 $x96 (or $x753 $x1352 $x2605 $x1302) (or $x901 $x102925 $x3386) (or $x901 $x2196 $x3386) (or $x901 (<= (+ ?x399 S_1) (- 5.0))) (or $x901 $x4696 $x102925) (or $x907 $x999 $x3015) (or $x753 $x1649 $x2628 $x3493) (or $x907 (<= (+ S_3 (* (- 3.0) S_2) ?x1386) 0.0)) (or $x907 (<= (+ ?x410 S_0) (- 5.0))) (or $x907 (<= (+ S_4 (* (- 4.0) S_2) (* 3.0 S_0)) 0.0)) (or $x907 (<= (+ L_0 ?x377 S_3 ?x410 S_0) 0.0)) $x103603 (or $x901 $x2196 $x6156) (or $x275 $x753 $x96124 $x102313) (or $x753 (<= (+ ?x1695 ?x1694 ?x381 ?x1413 (* 3.0 S_3)) 0.0)) (or $x753 $x1856 $x1985) (or $x753 (<= (+ ?x1382 ?x1325 ?x1413 ?x1183 ?x421) 0.0)) $x104214 $x104565 (or $x753 $x11747) (or $x102183 $x1968) (or $x895 (<= (+ ?x388 S_2) (- 5.0)) $x102759) (or $x102183 (<= (+ ?x388 S_2) (- 5.0))) (or $x753 (<= (+ ?x388 S_2) (- 5.0)) $x102313) (or $x102183 (<= (+ ?x912 ?x388 S_2 S_1 L_0) 0.0)) (or $x999 $x3520 $x94915 $x102183) (or $x753 $x96124 $x102313 $x103774) (or $x895 $x1985 $x105687 $x105702) (or $x1985 $x102183) (or $x6436 $x102183) (or $x1792 $x102183) $x106122 (or $x753 $x6436 $x11079) $x261684 (or $x102925 (<= (- 5.0) (+ ?x381 S_1 L_0)) $x105285) (or $x901 $x2196 $x4696) (or $x753 $x1847 $x1968) $x126011 (or $x895 $x6436 $x6671 $x29159) (or $x907 (<= (+ L_0 ?x373 S_4 ?x410 S_0) 0.0)) (or $x901 $x999 $x5962 $x11065 $x103204) (or (<= (+ ?x388 S_2 ?x1460 (* (- (/ 1.0 2.0)) S_0)) 0.0) $x102183) (or $x907 $x999 $x21013 $x106227) $x146486 (or $x3015 (<= (+ ?x373 A_1 ?x365 S_3 ?x410) 0.0)) $x145799 (or $x895 $x1359 (<= (+ ?x388 S_2) (- 5.0))) (or $x895 $x29159 (<= (+ ?x388 S_2) (- 5.0))) (or $x753 $x895 $x5831 (<= (+ ?x388 S_2) (- 5.0))) (or $x4694 $x4696) (or $x753 (<= (+ Q_4 ?x369 L_0 S_3) (- 5.0))) (or $x895 $x6436 $x102759 $x105702) (or $x895 $x6436 $x105687 $x105702) (or $x901 (<= (- 5.0) (+ ?x381 S_1 L_0)) $x105285) (or $x753 $x1302 $x2605 $x10507) $x108592 (or $x718 $x901 $x999 $x102925) (or $x753 $x1792 $x1843) (or $x753 $x1847 $x13745) $x108805 $x262313 (or $x895 $x1968 $x102759 $x105702) (or $x895 $x1359 $x6436 $x6671) (or $x901 $x2196 (<= (+ L_0 ?x373 S_4 ?x399 S_1) 0.0)) (or (<= (+ A_4 ?x373 ?x388 S_2) 0.0) $x3520 $x3949 $x102183) (or $x3386 $x4694) (or $x901 $x105285 (<= (+ A_1 ?x534 ?x399) (- 5.0))) (or $x100853 $x102183 $x103182 $x105348) (or $x753 $x96124 $x102313 $x103182 $x105348) (or $x4694 $x6156) $x110516 (or $x753 $x11729) $x260483 (or $x907 (<= ?x943 0.0) $x103745 (not (<= (- 10.0) (+ ?x373 A_2)))) $x128948 (or $x275 $x895 $x100853 $x102759) (or $x895 $x1359 $x1985 $x6671) (or $x907 (<= (+ L_0 ?x377 S_4 ?x1742 ?x1386) 0.0)) (or $x753 $x1649 $x2467 $x3149 $x93377 $x105792) (or $x4694 $x12478 $x20863) (or $x895 $x1985 $x6671 $x29159) (or $x895 $x1792 $x6671 $x29159) (or $x895 $x1792 $x5831 $x6671) (or $x753 $x96124 $x102313 (<= (+ Q_4 ?x369 A_1) (- 15.0)) $x103745) (or $x895 $x1359 $x1968 $x6671) $x112646 (or $x895 (<= (+ ?x388 S_2) (- 5.0)) $x105687) (or $x895 $x907 $x100853 $x102759 $x103417) (or $x901 $x6156 $x102925) (or $x895 $x999 $x13693 $x94915 $x102759 $x104646 $x105702 $x108878) (or $x895 $x999 $x13693 $x94915 $x104646 $x105687 $x105702 $x108878) $x114309 $x254056 (or $x999 (not (<= (+ ?x1607 ?x1629 ?x388 S_1) 0.0)) $x9829 $x93377 $x102209) $x125518 (or $x999 $x3520 $x4917 $x102183) (or $x3922 $x21013 $x38443 (<= 0.0 (+ ?x369 A_3 S_2 ?x955))) (or $x895 $x1968 $x6671 $x29159) (or $x895 $x100853 $x103182 (not (<= (- 10.0) (+ ?x381 S_0 L_0))) $x105348) (or $x3520 $x3949 $x4917 $x102183) (or $x753 $x1302 $x2605 $x4696) (or $x3015 $x3922 (<= (+ ?x2425 ?x2445 ?x1586 ?x2443 ?x410 ?x8430) 0.0)) (or $x3520 $x3814 $x4923 $x102183) (or $x275 $x895 $x901 $x1359) $x120959 $x116553 (or $x895 $x1985 $x102759 $x105702) (or $x901 $x12478 $x20863 $x52715) (or $x718 $x901 $x2196 $x4744) $x104494 $x252443 (or $x895 $x100853 $x103417 (not (<= (- 5.0) (+ ?x377 A_1))) $x105799) $x251656 (or $x895 $x999 $x11175 $x103193 (<= 0.0 ?x6729) $x106845 $x110419) $x125941 $x250677 (or $x901 $x12478 $x20863 $x44078) (or $x753 $x2628 $x3386 $x3493) (or $x718 $x4694 $x4744) (or $x895 $x1968 $x5831 $x6671) $x250065 (or $x895 $x1985 $x5831 $x6671) (or $x895 $x5831 $x6436 $x6671) (or $x753 $x1352 $x2450 $x3142 $x93377 $x103494) (or $x4694 $x4744 $x5962) $x256729 (or $x895 $x999 $x98737 $x103417 $x105348 $x105799) (or $x275 $x895 $x1359 $x100853) $x141144 $x118720 (or $x901 $x999 $x9972 $x11181 $x21208 $x103204 $x105244 $x105332 $x107403 $x109859) (or $x999 $x13693 $x94915 $x102183 $x104646) $x118838 (or $x895 $x1968 $x105687 $x105702) $x119006 $x258203 $x261289 $x141079 (or $x895 $x1792 $x105687 $x105702) (or $x901 $x999 $x11065 $x11181 $x21208 $x105244 $x109859 $x110774 $x111093) $x258793 (or $x901 $x3386 $x52715) (or $x901 $x999 $x9972 $x11181 $x21208 $x105244 $x105332 $x107403 $x109859 $x110774 $x111093) (or $x901 $x6156 $x52715) $x133722 $x257821 $x34 (<= (+ ?x912 L_0 S_0) 0.0) (<= (+ ?x381 L_0 S_1) 0.0) (<= (+ ?x377 L_0 S_2) 0.0) (<= (+ ?x373 L_0 S_3) 0.0) $x712 (<= (+ Q_4 ?x369 L_0 S_4) 0.0)))))))))))))))))))))))))))))))))))))))))))))))))))))))))))))))))))))))))))))))))))))))))))))))))))))))))))))))))))))))))))))))))))))))))))))))))))))))))))))))))))))))))))))))))))))))))))))))))))))))))))))))))))))))))))))))))))))))))))))))))))))))))
(check-sat)
